language Essence 1.0

letting n_nodes be 6
letting n_cols be 3

letting adj be [[false, true,  false, true,  false, false],
                [true,  false, true,  false, true,  false],
                [false, true,  false, false, false, true ],
                [true,  false, false, false, true,  false],
                [false, true,  false, true,  false, true ],
                [false, false, true,  false, true,  false]]

